p cnf 9 31
-9 -4 -3 -6 -2 -7 1 2 3 4 6 7 9 0
-8 -2 8 2 4 0
-1 -2 -8 -7 1 2 3 4 5 6 7 8 9 0
-9 -8 -4 8 1 4 9 0
-8 -2 -4 1 2 4 8 9 0
-2 -1 1 2 4 7 8 0
-1 -3 -8 1 2 3 6 7 8 9 0
-8 -2 -9 -5 8 9 2 5 0
 8 0
-1 -6 -2 -9 -8 -4 1 2 4 5 6 8 9 0
-9 -8 8 9 0
-1 -6 -9 -5 9 5 6 1 0
-5 -3 -1 -4 -2 1 2 3 4 5 9 0
-6 -7 -1 -2 1 2 4 6 7 8 0
-8 1 2 3 4 5 6 8 9 0
 8 1 3 6 0
-5 -2 -4 -1 1 2 3 4 5 6 9 0
-2 -5 -7 2 3 4 5 6 7 8 0
-3 -4 -6 2 3 4 6 7 8 0
-2 -5 2 5 0
-6 1 2 3 4 5 6 7 8 0
 1 2 4 5 6 7 8 0
-8 -4 -5 -7 -9 -2 2 4 5 7 8 9 0
-5 -8 -2 1 2 4 5 6 7 8 0
-6 -1 -2 -7 -3 1 2 3 4 5 6 7 8 9 0
-6 6 0
-4 -2 -5 -9 -7 1 2 3 4 5 7 8 9 0
-5 -6 -9 -2 -8 2 3 5 6 7 8 9 0
